c preprocessed version of munin1, 63 vertices, 180 edges
p td 63 180
1 0
54 0
53 0
10 0
1 2
1 9
1 13
52 1
10 1
12 1
3 2
58 2
10 2
12 2
3 4
5 3
3 58
5 4
49 4
17 4
25 4
5 6
56 5
7 6
6 14
6 16
56 6
7 8
7 55
56 7
22 7
8 9
8 57
8 55
10 9
9 57
12 9
10 11
10 47
10 38
10 43
10 21
10 52
10 13
10 12
27 10
45 10
12 11
23 11
24 11
12 13
27 12
12 47
12 52
12 38
12 43
12 21
45 12
14 13
15 13
14 15
14 16
17 16
25 16
49 16
18 17
24 17
17 40
17 30
17 48
17 39
17 53
17 49
17 55
17 50
29 17
25 17
19 18
22 18
25 18
19 20
19 21
22 19
21 20
22 23
22 26
22 27
22 56
29 22
22 28
24 23
56 23
25 24
25 26
25 28
25 29
25 30
25 39
25 40
25 49
25 55
25 50
25 48
41 25
42 25
26 27
28 26
29 28
31 30
46 30
32 31
46 31
44 31
32 33
32 48
44 32
34 33
47 33
33 48
34 35
34 47
44 34
35 36
35 39
35 40
35 43
41 35
42 35
44 35
37 36
36 39
38 36
38 37
41 40
41 42
42 43
44 45
44 46
45 46
50 49
53 49
49 55
50 51
50 52
52 51
53 54
59 15
59 60
59 61
59 62
59 51
59 54
59 57
59 58
60 15
60 20
60 61
60 54
60 51
60 57
60 58
60 24
60 28
60 62
61 62
61 33
61 37
61 41
61 46
62 15
62 20
62 24
62 28
62 33
62 37
62 41
62 51
62 57
62 58
62 46
